LAMMPS (2 Aug 2023)
OMP_NUM_THREADS environment is not set. Defaulting to 1 thread. (src/comm.cpp:98)
  using 1 OpenMP thread(s) per MPI task


# ----------------- Init Section -----------------
variable       dt equal 1 #timestep 1fs
variable       Tstart equal 300
variable       Ttarget equal 300

include "system.in.init"
units           real
boundary        p p p
atom_style      full
pair_style      lj/cut/coul/long 10.0
pair_modify     mix geometric
special_bonds   lj/coul 0.0 0.0 0.5
kspace_style    pppm 1.0e-4
bond_style      harmonic
angle_style     harmonic


# ----------------- Atom Definition Section -----------------

read_data "system.data"
Reading data file ...
  orthogonal box = (0 0 0) to (50 50 50)
  2 by 4 by 4 MPI processor grid
  reading atoms ...
  15000 atoms
  scanning bonds ...
  2 = max bonds/atom
  scanning angles ...
  1 = max angles/atom
  reading bonds ...
  10000 bonds
  reading angles ...
  5000 angles
Finding 1-2 1-3 1-4 neighbors ...
  special bond factors lj:    0        0        0.5     
  special bond factors coul:  0        0        0.5     
     2 = max # of 1-2 neighbors
     1 = max # of 1-3 neighbors
     1 = max # of 1-4 neighbors
     2 = max # of special neighbors
  special bonds CPU = 0.003 seconds
  read_data CPU = 0.147 seconds

# ----------------- Settings Section -----------------

include "system.in.settings"
# -- Non-bonded interactions --
pair_coeff      1     1       0.140000   3.215000
pair_coeff 1 2 0.000000 0.000000
pair_coeff      2     2       0.000000   0.000000

# -- harmonic bondType parameter  --
bond_coeff      1               600.0000    0.960000

# -- harmonic angleType parameter  --
angle_coeff     1               75.0000  109.500000

velocity       all create ${Tstart} 4581123 mom yes rot yes dist gaussian
velocity       all create 300 4581123 mom yes rot yes dist gaussian
timestep       ${dt}
timestep       1

thermo         100
thermo_style   custom step time temp press density vol etotal ke pe

min_style cg
minimize 1.0e-4 1.0e-6 10000 1000
PPPM initialization ...
  using 12-bit tables for long-range coulomb (src/kspace.cpp:342)
  G vector (1/distance) = 0.26748773
  grid = 27 27 27
  stencil order = 5
  estimated absolute RMS force accuracy = 0.032193996
  estimated relative force accuracy = 9.6951263e-05
  using double precision FFTW3
  3d grid and FFT values/proc = 3380 756
Generated 0 of 1 mixed pair_coeff terms from geometric mixing rule
Neighbor list info ...
  update: every = 1 steps, delay = 0 steps, check = yes
  max neighbors/atom: 2000, page size: 100000
  master list distance cutoff = 12
  ghost atom cutoff = 12
  binsize = 6, bins = 9 9 9
  1 neighbor lists, perpetual/occasional/extra = 1 0 0
  (1) pair lj/cut/coul/long, perpetual
      attributes: half, newton on
      pair build: half/bin/newton
      stencil: half/bin/3d
      bin: standard
Per MPI rank memory allocation (min/avg/max) = 9.263 | 9.51 | 9.692 Mbytes
   Step          Time           Temp          Press         Density         Volume         TotEng         KinEng         PotEng    
         0   0              300            1.9739336e+10  1.1966109      125000         8.9961158e+09  13412.751      8.9961024e+09
       100   100            300            13017.698      1.1966109      125000        -39967.94       13412.751     -53380.691    
       200   200            300            9344.496       1.1966109      125000        -49500.57       13412.751     -62913.321    
       280   280            300            9086.3534      1.1966109      125000        -51179.638      13412.751     -64592.389    
Loop time of 3.98787 on 32 procs for 280 steps with 15000 atoms

99.8% CPU use with 32 MPI tasks x 1 OpenMP threads

Minimization stats:
  Stopping criterion = energy tolerance
  Energy initial, next-to-last, final = 
      8996102398.64873  -64586.2201248307  -64592.3887135115
  Force two-norm initial, final = 2.4062619e+11 114.6512
  Force max component initial, final = 1.3327239e+11 22.296879
  Final line search alpha, max atom move = 0.0040677034 0.090697092
  Iterations, force evaluations = 280 441

MPI task timing breakdown:
Section |  min time  |  avg time  |  max time  |%varavg| %total
---------------------------------------------------------------
Pair    | 2.1811     | 2.5286     | 2.918      |  10.5 | 63.41
Bond    | 0.0084105  | 0.0096102  | 0.011151   |   0.5 |  0.24
Kspace  | 0.69181    | 1.0877     | 1.4322     |  16.1 | 27.28
Neigh   | 0.077752   | 0.078464   | 0.079918   |   0.2 |  1.97
Comm    | 0.23134    | 0.25348    | 0.26465    |   1.9 |  6.36
Output  | 0.00042824 | 0.00043516 | 0.00045988 |   0.0 |  0.01
Modify  | 0          | 0          | 0          |   0.0 |  0.00
Other   |            | 0.02954    |            |       |  0.74

Nlocal:         468.75 ave         495 max         423 min
Histogram: 1 0 0 2 3 9 6 4 3 4
Nghost:        7357.41 ave        7481 max        7276 min
Histogram: 3 6 5 4 3 4 3 0 2 2
Neighs:         203554 ave      218873 max      181386 min
Histogram: 1 0 1 6 4 7 3 1 5 4

Total # of neighbors = 6513727
Ave neighs/atom = 434.24847
Ave special neighs/atom = 2
Neighbor list builds = 11
Dangerous builds = 0
thermo         100
thermo_style   custom step time temp press density vol etotal ke pe

write_data minimize.data pair ij
System init for write_data ...
PPPM initialization ...
  using 12-bit tables for long-range coulomb (src/kspace.cpp:342)
  G vector (1/distance) = 0.26748773
  grid = 27 27 27
  stencil order = 5
  estimated absolute RMS force accuracy = 0.032193996
  estimated relative force accuracy = 9.6951263e-05
  using double precision FFTW3
  3d grid and FFT values/proc = 3380 756
Generated 0 of 1 mixed pair_coeff terms from geometric mixing rule
reset_timestep 0

fix              1 all npt temp ${Tstart} ${Ttarget} 100 iso 1.0 1.0 1000.0
fix              1 all npt temp 300 ${Ttarget} 100 iso 1.0 1.0 1000.0
fix              1 all npt temp 300 300 100 iso 1.0 1.0 1000.0
dump           dumpNPT all custom 1000 dump.npt.atom.* id type xs ys zs vx vy vz
run            1000
PPPM initialization ...
  using 12-bit tables for long-range coulomb (src/kspace.cpp:342)
  G vector (1/distance) = 0.26748773
  grid = 27 27 27
  stencil order = 5
  estimated absolute RMS force accuracy = 0.032193996
  estimated relative force accuracy = 9.6951263e-05
  using double precision FFTW3
  3d grid and FFT values/proc = 3380 756
Generated 0 of 1 mixed pair_coeff terms from geometric mixing rule
Per MPI rank memory allocation (min/avg/max) = 8.143 | 8.48 | 8.568 Mbytes
   Step          Time           Temp          Press         Density         Volume         TotEng         KinEng         PotEng    
         0   0              300            9086.3534      1.1966109      125000        -51179.638      13412.751     -64592.389    
       100   100            153.06795      3370.5258      1.1710978      127723.21     -50417.81       6843.5411     -57261.351    
       200   200            170.75513      3294.5953      1.1495282      130119.79     -49231.063      7634.3203     -56865.383    
       300   300            192.56858      2695.5193      1.1316597      132174.33     -47820.628      8609.5815     -56430.21     
       400   400            213.86131      2947.3728      1.1164139      133979.31     -46288.75       9561.5618     -55850.311    
       500   500            231.75861      1903.4091      1.1030504      135602.47     -44589.998      10361.735     -54951.733    
       600   600            248.06901      2739.4828      1.0908037      137124.92     -42880.02       11090.96      -53970.98     
       700   700            264.96488      1523.0204      1.0797043      138534.56     -41203.455      11846.36      -53049.815    
       800   800            282.53453      2365.5112      1.069005       139921.11     -39651.989      12631.884     -52283.873    
       900   900            295.28002      819.827        1.059453       141182.63     -38285.938      13201.725     -51487.663    
      1000   1000           304.46381      1989.0871      1.0502142      142424.63     -37304.13       13612.324     -50916.454    
Loop time of 5.70279 on 32 procs for 1000 steps with 15000 atoms

Performance: 15.150 ns/day, 1.584 hours/ns, 175.353 timesteps/s, 2.630 Matom-step/s
100.0% CPU use with 32 MPI tasks x 1 OpenMP threads

MPI task timing breakdown:
Section |  min time  |  avg time  |  max time  |%varavg| %total
---------------------------------------------------------------
Pair    | 3.4801     | 3.6868     | 3.9049     |   5.9 | 64.65
Bond    | 0.023045   | 0.023904   | 0.024781   |   0.3 |  0.42
Kspace  | 0.74668    | 0.96738    | 1.1742     |  11.2 | 16.96
Neigh   | 0.25564    | 0.25925    | 0.26784    |   0.7 |  4.55
Comm    | 0.46757    | 0.53656    | 0.57386    |   3.9 |  9.41
Output  | 0.0019356  | 0.0025552  | 0.0033117  |   0.7 |  0.04
Modify  | 0.13861    | 0.17339    | 0.22051    |   5.4 |  3.04
Other   |            | 0.05291    |            |       |  0.93

Nlocal:         468.75 ave         487 max         450 min
Histogram: 2 4 2 4 2 5 3 5 4 1
Nghost:        6783.69 ave        6851 max        6734 min
Histogram: 1 7 5 4 4 1 4 3 2 1
Neighs:         178558 ave      188609 max      169662 min
Histogram: 4 2 5 1 4 4 6 3 2 1

Total # of neighbors = 5713870
Ave neighs/atom = 380.92467
Ave special neighs/atom = 2
Neighbor list builds = 46
Dangerous builds = 0
write_data npt.data pair ij
System init for write_data ...
PPPM initialization ...
  using 12-bit tables for long-range coulomb (src/kspace.cpp:342)
  G vector (1/distance) = 0.2638072
  grid = 27 27 27
  stencil order = 5
  estimated absolute RMS force accuracy = 0.036672866
  estimated relative force accuracy = 0.00011043925
  using double precision FFTW3
  3d grid and FFT values/proc = 3380 756
Generated 0 of 1 mixed pair_coeff terms from geometric mixing rule

unfix            1
undump           dumpNPT

fix              2 all nve
dump           dumpNVE all custom 1000 dump.nve.atom.* id type xs ys zs vx vy vz
run            1000
PPPM initialization ...
  using 12-bit tables for long-range coulomb (src/kspace.cpp:342)
  G vector (1/distance) = 0.2638072
  grid = 27 27 27
  stencil order = 5
  estimated absolute RMS force accuracy = 0.036672866
  estimated relative force accuracy = 0.00011043925
  using double precision FFTW3
  3d grid and FFT values/proc = 3380 756
Generated 0 of 1 mixed pair_coeff terms from geometric mixing rule
Per MPI rank memory allocation (min/avg/max) = 8.143 | 8.48 | 8.568 Mbytes
   Step          Time           Temp          Press         Density         Volume         TotEng         KinEng         PotEng    
      1000   1000           304.46381      1989.288       1.0502142      142424.63     -37304.106      13612.324     -50916.431    
      1100   1100           303.42152      1415.5157      1.0502142      142424.63     -37304.715      13565.724     -50870.439    
      1200   1200           302.51928      1827.9216      1.0502142      142424.63     -37299.03       13525.386     -50824.416    
      1300   1300           302.13448      2054.7121      1.0502142      142424.63     -37288.274      13508.182     -50796.456    
      1400   1400           303.87275      1955.8845      1.0502142      142424.63     -37295.282      13585.898     -50881.18     
      1500   1500           302.97031      2323.8794      1.0502142      142424.63     -37294.861      13545.551     -50840.412    
      1600   1600           305.29494      1410.2573      1.0502142      142424.63     -37295.852      13649.483     -50945.335    
      1700   1700           305.41102      2565.9601      1.0502142      142424.63     -37296.163      13654.673     -50950.836    
      1800   1800           305.04834      1593.3182      1.0502142      142424.63     -37296.586      13638.458     -50935.044    
      1900   1900           302.11994      2497.6948      1.0502142      142424.63     -37293.541      13507.532     -50801.073    
      2000   2000           301.77915      2237.3984      1.0502142      142424.63     -37287.57       13492.295     -50779.865    
Loop time of 5.32198 on 32 procs for 1000 steps with 15000 atoms

Performance: 16.235 ns/day, 1.478 hours/ns, 187.900 timesteps/s, 2.819 Matom-step/s
100.0% CPU use with 32 MPI tasks x 1 OpenMP threads

MPI task timing breakdown:
Section |  min time  |  avg time  |  max time  |%varavg| %total
---------------------------------------------------------------
Pair    | 3.3206     | 3.5265     | 3.7691     |   4.9 | 66.26
Bond    | 0.017364   | 0.018224   | 0.020081   |   0.4 |  0.34
Kspace  | 0.68491    | 0.93797    | 1.1323     |   9.8 | 17.62
Neigh   | 0.28256    | 0.28656    | 0.29535    |   0.7 |  5.38
Comm    | 0.46803    | 0.51571    | 0.54171    |   2.7 |  9.69
Output  | 0.0020972  | 0.002674   | 0.0033465  |   0.7 |  0.05
Modify  | 0.0057912  | 0.0062225  | 0.0065804  |   0.3 |  0.12
Other   |            | 0.02814    |            |       |  0.53

Nlocal:         468.75 ave         496 max         441 min
Histogram: 1 0 6 3 5 4 7 2 3 1
Nghost:        6790.41 ave        6854 max        6714 min
Histogram: 1 3 5 0 4 4 5 3 4 3
Neighs:         178440 ave      190022 max      164805 min
Histogram: 1 1 3 4 5 6 4 2 5 1

Total # of neighbors = 5710081
Ave neighs/atom = 380.67207
Ave special neighs/atom = 2
Neighbor list builds = 52
Dangerous builds = 0
write_data nvt.data pair ij
System init for write_data ...
PPPM initialization ...
  using 12-bit tables for long-range coulomb (src/kspace.cpp:342)
  G vector (1/distance) = 0.2638072
  grid = 27 27 27
  stencil order = 5
  estimated absolute RMS force accuracy = 0.036672866
  estimated relative force accuracy = 0.00011043925
  using double precision FFTW3
  3d grid and FFT values/proc = 3380 756
Generated 0 of 1 mixed pair_coeff terms from geometric mixing rule
Total wall time: 0:00:15
