LAMMPS (2 Aug 2023)
OMP_NUM_THREADS environment is not set. Defaulting to 1 thread. (src/comm.cpp:98)
  using 1 OpenMP thread(s) per MPI task


# ----------------- Init Section -----------------
variable       dt equal 1 #timestep 1fs
variable       Tstart equal 300
variable       Ttarget equal 300

include "system.in.init"
units           real
boundary        p p p
atom_style      full
pair_style      lj/cut/coul/long 10.0
pair_modify     mix geometric
special_bonds   lj/coul 0.0 0.0 0.5
kspace_style    pppm 1.0e-4
bond_style      harmonic
angle_style     harmonic


# ----------------- Atom Definition Section -----------------

read_data "system.data"
Reading data file ...
  orthogonal box = (0 0 0) to (50 50 50)
  2 by 4 by 4 MPI processor grid
  reading atoms ...
  15000 atoms
  scanning bonds ...
  2 = max bonds/atom
  scanning angles ...
  1 = max angles/atom
  reading bonds ...
  10000 bonds
  reading angles ...
  5000 angles
Finding 1-2 1-3 1-4 neighbors ...
  special bond factors lj:    0        0        0.5     
  special bond factors coul:  0        0        0.5     
     2 = max # of 1-2 neighbors
     1 = max # of 1-3 neighbors
     1 = max # of 1-4 neighbors
     2 = max # of special neighbors
  special bonds CPU = 0.003 seconds
  read_data CPU = 0.149 seconds

# ----------------- Settings Section -----------------

include "system.in.settings"
# -- Non-bonded interactions --
pair_coeff      1     1       0.140000   3.215000
pair_coeff 1 2 0.000000 0.000000
pair_coeff      2     2       0.000000   0.000000

# -- harmonic bondType parameter  --
bond_coeff      1               600.0000    0.960000

# -- harmonic angleType parameter  --
angle_coeff     1               75.0000  109.500000

velocity       all create ${Tstart} 4581123 mom yes rot yes dist gaussian
velocity       all create 300 4581123 mom yes rot yes dist gaussian
timestep       ${dt}
timestep       1

thermo         100
thermo_style   custom step time temp press density vol etotal ke pe

min_style cg
minimize 1.0e-4 1.0e-6 10000 1000
PPPM initialization ...
  using 12-bit tables for long-range coulomb (src/kspace.cpp:342)
  G vector (1/distance) = 0.26748773
  grid = 27 27 27
  stencil order = 5
  estimated absolute RMS force accuracy = 0.032193996
  estimated relative force accuracy = 9.6951263e-05
  using double precision FFTW3
  3d grid and FFT values/proc = 3380 756
Generated 0 of 1 mixed pair_coeff terms from geometric mixing rule
Neighbor list info ...
  update: every = 1 steps, delay = 0 steps, check = yes
  max neighbors/atom: 2000, page size: 100000
  master list distance cutoff = 12
  ghost atom cutoff = 12
  binsize = 6, bins = 9 9 9
  1 neighbor lists, perpetual/occasional/extra = 1 0 0
  (1) pair lj/cut/coul/long, perpetual
      attributes: half, newton on
      pair build: half/bin/newton
      stencil: half/bin/3d
      bin: standard
Per MPI rank memory allocation (min/avg/max) = 9.263 | 9.51 | 9.692 Mbytes
   Step          Time           Temp          Press         Density         Volume         TotEng         KinEng         PotEng    
         0   0              300            1.9739336e+10  1.1966109      125000         8.9961158e+09  13412.751      8.9961024e+09
       100   100            300            13017.698      1.1966109      125000        -39967.94       13412.751     -53380.691    
       200   200            300            9344.496       1.1966109      125000        -49500.57       13412.751     -62913.321    
       280   280            300            9086.3534      1.1966109      125000        -51179.638      13412.751     -64592.389    
Loop time of 3.9368 on 32 procs for 280 steps with 15000 atoms

99.9% CPU use with 32 MPI tasks x 1 OpenMP threads

Minimization stats:
  Stopping criterion = energy tolerance
  Energy initial, next-to-last, final = 
      8996102398.64873  -64586.2201248307  -64592.3887135115
  Force two-norm initial, final = 2.4062619e+11 114.6512
  Force max component initial, final = 1.3327239e+11 22.296879
  Final line search alpha, max atom move = 0.0040677034 0.090697092
  Iterations, force evaluations = 280 441

MPI task timing breakdown:
Section |  min time  |  avg time  |  max time  |%varavg| %total
---------------------------------------------------------------
Pair    | 2.1336     | 2.5343     | 2.8402     |  10.5 | 64.38
Bond    | 0.0081461  | 0.0096004  | 0.010812   |   0.5 |  0.24
Kspace  | 0.73671    | 1.0387     | 1.4377     |  16.4 | 26.38
Neigh   | 0.076633   | 0.077191   | 0.078481   |   0.2 |  1.96
Comm    | 0.22716    | 0.24747    | 0.26047    |   1.8 |  6.29
Output  | 0.0003923  | 0.00039773 | 0.00042262 |   0.0 |  0.01
Modify  | 0          | 0          | 0          |   0.0 |  0.00
Other   |            | 0.02915    |            |       |  0.74

Nlocal:         468.75 ave         495 max         423 min
Histogram: 1 0 0 2 3 9 6 4 3 4
Nghost:        7357.41 ave        7481 max        7276 min
Histogram: 3 6 5 4 3 4 3 0 2 2
Neighs:         203554 ave      218873 max      181386 min
Histogram: 1 0 1 6 4 7 3 1 5 4

Total # of neighbors = 6513727
Ave neighs/atom = 434.24847
Ave special neighs/atom = 2
Neighbor list builds = 11
Dangerous builds = 0
thermo         100
thermo_style   custom step time temp press density vol etotal ke pe

write_data minimize.data pair ij
System init for write_data ...
PPPM initialization ...
  using 12-bit tables for long-range coulomb (src/kspace.cpp:342)
  G vector (1/distance) = 0.26748773
  grid = 27 27 27
  stencil order = 5
  estimated absolute RMS force accuracy = 0.032193996
  estimated relative force accuracy = 9.6951263e-05
  using double precision FFTW3
  3d grid and FFT values/proc = 3380 756
Generated 0 of 1 mixed pair_coeff terms from geometric mixing rule
reset_timestep 0

fix              1 all npt temp ${Tstart} ${Ttarget} 100 iso 1.0 1.0 1000.0
fix              1 all npt temp 300 ${Ttarget} 100 iso 1.0 1.0 1000.0
fix              1 all npt temp 300 300 100 iso 1.0 1.0 1000.0
dump           dumpNPT all custom 1000 dump.npt.atom.* id type xs ys zs vx vy vz
run            1000
PPPM initialization ...
  using 12-bit tables for long-range coulomb (src/kspace.cpp:342)
  G vector (1/distance) = 0.26748773
  grid = 27 27 27
  stencil order = 5
  estimated absolute RMS force accuracy = 0.032193996
  estimated relative force accuracy = 9.6951263e-05
  using double precision FFTW3
  3d grid and FFT values/proc = 3380 756
Generated 0 of 1 mixed pair_coeff terms from geometric mixing rule
Per MPI rank memory allocation (min/avg/max) = 8.143 | 8.48 | 8.568 Mbytes
   Step          Time           Temp          Press         Density         Volume         TotEng         KinEng         PotEng    
         0   0              300            9086.3534      1.1966109      125000        -51179.638      13412.751     -64592.389    
       100   100            153.06795      3370.5258      1.1710978      127723.21     -50417.81       6843.5411     -57261.351    
       200   200            170.75513      3294.5953      1.1495282      130119.79     -49231.063      7634.3203     -56865.383    
       300   300            192.56858      2695.5193      1.1316597      132174.33     -47820.628      8609.5815     -56430.21     
       400   400            213.86131      2947.3728      1.1164139      133979.31     -46288.75       9561.5618     -55850.311    
       500   500            231.75861      1903.4091      1.1030504      135602.47     -44589.998      10361.735     -54951.733    
       600   600            248.06901      2739.4828      1.0908037      137124.92     -42880.02       11090.96      -53970.98     
       700   700            264.96488      1523.0204      1.0797043      138534.56     -41203.455      11846.36      -53049.815    
       800   800            282.53453      2365.5112      1.069005       139921.11     -39651.989      12631.884     -52283.873    
       900   900            295.28002      819.827        1.059453       141182.63     -38285.938      13201.725     -51487.663    
      1000   1000           304.46381      1989.0871      1.0502142      142424.63     -37304.13       13612.324     -50916.454    
Loop time of 5.6882 on 32 procs for 1000 steps with 15000 atoms

Performance: 15.189 ns/day, 1.580 hours/ns, 175.803 timesteps/s, 2.637 Matom-step/s
100.0% CPU use with 32 MPI tasks x 1 OpenMP threads

MPI task timing breakdown:
Section |  min time  |  avg time  |  max time  |%varavg| %total
---------------------------------------------------------------
Pair    | 3.4781     | 3.6763     | 3.8592     |   5.5 | 64.63
Bond    | 0.023082   | 0.023902   | 0.025305   |   0.3 |  0.42
Kspace  | 0.7897     | 0.97073    | 1.1787     |  10.6 | 17.07
Neigh   | 0.25699    | 0.25938    | 0.2639     |   0.4 |  4.56
Comm    | 0.48025    | 0.53054    | 0.56019    |   2.9 |  9.33
Output  | 0.0032162  | 0.0038236  | 0.0045608  |   0.6 |  0.07
Modify  | 0.13759    | 0.17208    | 0.21647    |   5.3 |  3.03
Other   |            | 0.0514     |            |       |  0.90

Nlocal:         468.75 ave         487 max         450 min
Histogram: 2 4 2 4 2 5 3 5 4 1
Nghost:        6783.69 ave        6851 max        6734 min
Histogram: 1 7 5 4 4 1 4 3 2 1
Neighs:         178558 ave      188609 max      169662 min
Histogram: 4 2 5 1 4 4 6 3 2 1

Total # of neighbors = 5713870
Ave neighs/atom = 380.92467
Ave special neighs/atom = 2
Neighbor list builds = 46
Dangerous builds = 0
write_data npt.data pair ij
System init for write_data ...
PPPM initialization ...
  using 12-bit tables for long-range coulomb (src/kspace.cpp:342)
  G vector (1/distance) = 0.2638072
  grid = 27 27 27
  stencil order = 5
  estimated absolute RMS force accuracy = 0.036672866
  estimated relative force accuracy = 0.00011043925
  using double precision FFTW3
  3d grid and FFT values/proc = 3380 756
Generated 0 of 1 mixed pair_coeff terms from geometric mixing rule

unfix            1
undump           dumpNPT

fix              2 all nve
dump           dumpNVE all custom 1000 dump.nve.atom.* id type xs ys zs vx vy vz
run            000
PPPM initialization ...
  using 12-bit tables for long-range coulomb (src/kspace.cpp:342)
  G vector (1/distance) = 0.2638072
  grid = 27 27 27
  stencil order = 5
  estimated absolute RMS force accuracy = 0.036672866
  estimated relative force accuracy = 0.00011043925
  using double precision FFTW3
  3d grid and FFT values/proc = 3380 756
Generated 0 of 1 mixed pair_coeff terms from geometric mixing rule
Per MPI rank memory allocation (min/avg/max) = 8.143 | 8.48 | 8.568 Mbytes
   Step          Time           Temp          Press         Density         Volume         TotEng         KinEng         PotEng    
      1000   1000           304.46381      1989.288       1.0502142      142424.63     -37304.106      13612.324     -50916.431    
Loop time of 4.06428e-06 on 32 procs for 0 steps with 15000 atoms

124.6% CPU use with 32 MPI tasks x 1 OpenMP threads

MPI task timing breakdown:
Section |  min time  |  avg time  |  max time  |%varavg| %total
---------------------------------------------------------------
Pair    | 0          | 0          | 0          |   0.0 |  0.00
Bond    | 0          | 0          | 0          |   0.0 |  0.00
Kspace  | 0          | 0          | 0          |   0.0 |  0.00
Neigh   | 0          | 0          | 0          |   0.0 |  0.00
Comm    | 0          | 0          | 0          |   0.0 |  0.00
Output  | 0          | 0          | 0          |   0.0 |  0.00
Modify  | 0          | 0          | 0          |   0.0 |  0.00
Other   |            | 4.064e-06  |            |       |100.00

Nlocal:         468.75 ave         488 max         450 min
Histogram: 2 4 2 5 2 5 4 4 2 2
Nghost:        6785.12 ave        6845 max        6739 min
Histogram: 2 3 8 5 3 2 2 2 3 2
Neighs:         178458 ave      189464 max      169209 min
Histogram: 4 2 2 4 6 4 5 2 2 1

Total # of neighbors = 5710656
Ave neighs/atom = 380.7104
Ave special neighs/atom = 2
Neighbor list builds = 0
Dangerous builds = 0
write_data nvt.data pair ij
System init for write_data ...
PPPM initialization ...
  using 12-bit tables for long-range coulomb (src/kspace.cpp:342)
  G vector (1/distance) = 0.2638072
  grid = 27 27 27
  stencil order = 5
  estimated absolute RMS force accuracy = 0.036672866
  estimated relative force accuracy = 0.00011043925
  using double precision FFTW3
  3d grid and FFT values/proc = 3380 756
Generated 0 of 1 mixed pair_coeff terms from geometric mixing rule
Total wall time: 0:00:10
